\* NFL_DFS_Optimization *\
Maximize
OBJ: 3.91421772252 Adam_Trautman_FLEX_37128020
 + 3.91421772252 Adam_Trautman_TE_37128020
 + 7.29821039874 Andrei_Iosivas_FLEX_37127928
 + 7.29821039874 Andrei_Iosivas_WR_37127928 + 11 Antonio_Gibson_FLEX_37127844
 + 11 Antonio_Gibson_RB_37127844 + 6.82605516104 Audric_Estime_FLEX_37127846
 + 6.82605516104 Audric_Estime_RB_37127846
 + 6.76163793393 Austin_Hooper_FLEX_37128016
 + 6.76163793393 Austin_Hooper_TE_37128016 + 6.01 Bengals_DST_37128076
 + 3.86875933827 Blake_Corum_FLEX_37127856
 + 3.86875933827 Blake_Corum_RB_37127856 + 20.4612579015 Bo_Nix_QB_37127813
 + 5.88 Broncos_DST_37128077 + 2.48147238284 Cam_Grandy_FLEX_37128066
 + 2.48147238284 Cam_Grandy_TE_37128066 + 4.6 Cardinals_DST_37128078
 + 8.08 Chargers_DST_37128074 + 21.063484371 Chase_Brown_FLEX_37127830
 + 21.063484371 Chase_Brown_RB_37127830
 + 4.84448469813 Colby_Parkinson_FLEX_37128022
 + 4.84448469813 Colby_Parkinson_TE_37128022
 + 14.3027191999 Cooper_Kupp_FLEX_37127908
 + 14.3027191999 Cooper_Kupp_WR_37127908
 + 15.8803694206 Courtland_Sutton_FLEX_37127910
 + 15.8803694206 Courtland_Sutton_WR_37127910 + 1.63 DJ_Chark_FLEX_37127942
 + 1.63 DJ_Chark_WR_37127942 + 8.06056609603 DeMario_Douglas_FLEX_37127918
 + 8.06056609603 DeMario_Douglas_WR_37127918
 + 3.66307594596 DeeJay_Dallas_FLEX_37127858
 + 3.66307594596 DeeJay_Dallas_RB_37127858
 + 5.564842221 Demarcus_Robinson_FLEX_37127930
 + 5.564842221 Demarcus_Robinson_WR_37127930
 + 2.16761392544 Derius_Davis_FLEX_37127940
 + 2.16761392544 Derius_Davis_WR_37127940
 + 7.62037019713 Devaughn_Vele_FLEX_37127922
 + 7.62037019713 Devaughn_Vele_WR_37127922
 + 17.5862314623 Drake_Maye_QB_37127816
 + 3.257857778 Drew_Sample_FLEX_37128062 + 3.257857778 Drew_Sample_TE_37128062
 + 3.30162497685 Elijah_Higgins_FLEX_37128042
 + 3.30162497685 Elijah_Higgins_TE_37128042
 + 4.12630598632 Greg_Dortch_FLEX_37127938
 + 4.12630598632 Greg_Dortch_WR_37127938
 + 10.751228629 Hunter_Henry_FLEX_37128008
 + 10.751228629 Hunter_Henry_TE_37128008
 + 14.0191548695 J.K._Dobbins_FLEX_37127836
 + 14.0191548695 J.K._Dobbins_RB_37127836
 + 23.4887676274 Ja'Marr_Chase_FLEX_37127900
 + 23.4887676274 Ja'Marr_Chase_WR_37127900
 + 7.2244056629 Jaleel_McLaughlin_FLEX_37127852
 + 7.2244056629 Jaleel_McLaughlin_RB_37127852
 + 16.1678359092 James_Conner_FLEX_37127834
 + 16.1678359092 James_Conner_RB_37127834
 + 9.52515130143 Javonte_Williams_FLEX_37127840
 + 9.52515130143 Javonte_Williams_RB_37127840
 + 22.6701350298 Joe_Burrow_QB_37127812
 + 8.24150028811 Joshua_Palmer_FLEX_37127916
 + 8.24150028811 Joshua_Palmer_WR_37127916
 + 18.7125275932 Justin_Herbert_QB_37127815
 + 8.40883680568 Kayshon_Boutte_FLEX_37127924
 + 8.40883680568 Kayshon_Boutte_WR_37127924
 + 5.97089479741 Kendrick_Bourne_FLEX_37127936
 + 5.97089479741 Kendrick_Bourne_WR_37127936
 + 6.97043584484 Khalil_Herbert_FLEX_37127854
 + 6.97043584484 Khalil_Herbert_RB_37127854
 + 6.090889893 Kimani_Vidal_FLEX_37127850
 + 6.090889893 Kimani_Vidal_RB_37127850
 + 18.6484244222 Kyler_Murray_QB_37127814
 + 20.802095976 Kyren_Williams_FLEX_37127832
 + 20.802095976 Kyren_Williams_RB_37127832
 + 16.75463178 Ladd_McConkey_FLEX_37127906
 + 16.75463178 Ladd_McConkey_WR_37127906
 + 3.98528061507 Lil'Jordan_Humphrey_FLEX_37127988
 + 3.98528061507 Lil'Jordan_Humphrey_WR_37127988
 + 3.38662112815 Lucas_Krull_FLEX_37128024
 + 3.38662112815 Lucas_Krull_TE_37128024
 + 12.94 Marvin_Harrison_Jr._FLEX_37127912
 + 12.94 Marvin_Harrison_Jr._WR_37127912 + 7.2 Marvin_Mims_Jr._FLEX_37127926
 + 7.2 Marvin_Mims_Jr._WR_37127926
 + 17.1815081026 Matthew_Stafford_QB_37127817
 + 1.54784082541 Michael_Burton_FLEX_37127888
 + 1.54784082541 Michael_Burton_RB_37127888
 + 7.30024489856 Michael_Wilson_FLEX_37127920
 + 7.30024489856 Michael_Wilson_WR_37127920
 + 7.0558089303 Mike_Gesicki_FLEX_37128018
 + 7.0558089303 Mike_Gesicki_TE_37128018
 + 2.45413356977 Nate_Adkins_FLEX_37128054
 + 2.45413356977 Nate_Adkins_TE_37128054 + 4.69 Patriots_DST_37128079
 + 21.3634776838 Puka_Nacua_FLEX_37127902
 + 21.3634776838 Puka_Nacua_WR_37127902
 + 8.67821990776 Quentin_Johnston_FLEX_37127914
 + 8.67821990776 Quentin_Johnston_WR_37127914 + 6.04 Rams_DST_37128075
 + 8 Rhamondre_Stevenson_FLEX_37127838 + 8 Rhamondre_Stevenson_RB_37127838
 + 4.09825297937 Stone_Smartt_FLEX_37128012
 + 4.09825297937 Stone_Smartt_TE_37128012
 + 16.6418118674 Tee_Higgins_FLEX_37127904
 + 16.6418118674 Tee_Higgins_WR_37127904
 + 4.37526493098 Trey_Benson_FLEX_37127848
 + 4.37526493098 Trey_Benson_RB_37127848
 + 16.9855971597 Trey_McBride_FLEX_37128006
 + 16.9855971597 Trey_McBride_TE_37128006
 + 5.39572155536 Troy_Franklin_FLEX_37127934
 + 5.39572155536 Troy_Franklin_WR_37127934
 + 2.02418775521 Tucker_Fisk_FLEX_37128028
 + 2.02418775521 Tucker_Fisk_TE_37128028
 + 4.55244484808 Tutu_Atwell_FLEX_37127932
 + 4.55244484808 Tutu_Atwell_WR_37127932
 + 6.28635689084 Tyler_Higbee_FLEX_37128014
 + 6.28635689084 Tyler_Higbee_TE_37128014
 + 7.99847354389 Will_Dissly_FLEX_37128010
 + 7.99847354389 Will_Dissly_TE_37128010 + 3 Zay_Jones_FLEX_37127968
 + 3 Zay_Jones_WR_37127968
Subject To
Global_Team_ARI: Cardinals_DST_37128078 + DeeJay_Dallas_FLEX_37127858
 + DeeJay_Dallas_RB_37127858 + Elijah_Higgins_FLEX_37128042
 + Elijah_Higgins_TE_37128042 + Greg_Dortch_FLEX_37127938
 + Greg_Dortch_WR_37127938 + James_Conner_FLEX_37127834
 + James_Conner_RB_37127834 + Kyler_Murray_QB_37127814
 + Marvin_Harrison_Jr._FLEX_37127912 + Marvin_Harrison_Jr._WR_37127912
 + Michael_Wilson_FLEX_37127920 + Michael_Wilson_WR_37127920
 + Trey_Benson_FLEX_37127848 + Trey_Benson_RB_37127848
 + Trey_McBride_FLEX_37128006 + Trey_McBride_TE_37128006
 + Zay_Jones_FLEX_37127968 + Zay_Jones_WR_37127968 <= 4
Global_Team_CIN: Andrei_Iosivas_FLEX_37127928 + Andrei_Iosivas_WR_37127928
 + Bengals_DST_37128076 + Cam_Grandy_FLEX_37128066 + Cam_Grandy_TE_37128066
 + Chase_Brown_FLEX_37127830 + Chase_Brown_RB_37127830
 + Drew_Sample_FLEX_37128062 + Drew_Sample_TE_37128062
 + Ja'Marr_Chase_FLEX_37127900 + Ja'Marr_Chase_WR_37127900
 + Joe_Burrow_QB_37127812 + Khalil_Herbert_FLEX_37127854
 + Khalil_Herbert_RB_37127854 + Mike_Gesicki_FLEX_37128018
 + Mike_Gesicki_TE_37128018 + Tee_Higgins_FLEX_37127904
 + Tee_Higgins_WR_37127904 <= 4
Global_Team_DEN: Adam_Trautman_FLEX_37128020 + Adam_Trautman_TE_37128020
 + Audric_Estime_FLEX_37127846 + Audric_Estime_RB_37127846
 + Bo_Nix_QB_37127813 + Broncos_DST_37128077 + Courtland_Sutton_FLEX_37127910
 + Courtland_Sutton_WR_37127910 + Devaughn_Vele_FLEX_37127922
 + Devaughn_Vele_WR_37127922 + Jaleel_McLaughlin_FLEX_37127852
 + Jaleel_McLaughlin_RB_37127852 + Javonte_Williams_FLEX_37127840
 + Javonte_Williams_RB_37127840 + Lil'Jordan_Humphrey_FLEX_37127988
 + Lil'Jordan_Humphrey_WR_37127988 + Lucas_Krull_FLEX_37128024
 + Lucas_Krull_TE_37128024 + Marvin_Mims_Jr._FLEX_37127926
 + Marvin_Mims_Jr._WR_37127926 + Michael_Burton_FLEX_37127888
 + Michael_Burton_RB_37127888 + Nate_Adkins_FLEX_37128054
 + Nate_Adkins_TE_37128054 + Troy_Franklin_FLEX_37127934
 + Troy_Franklin_WR_37127934 <= 4
Global_Team_LAC: Chargers_DST_37128074 + DJ_Chark_FLEX_37127942
 + DJ_Chark_WR_37127942 + Derius_Davis_FLEX_37127940
 + Derius_Davis_WR_37127940 + J.K._Dobbins_FLEX_37127836
 + J.K._Dobbins_RB_37127836 + Joshua_Palmer_FLEX_37127916
 + Joshua_Palmer_WR_37127916 + Justin_Herbert_QB_37127815
 + Kimani_Vidal_FLEX_37127850 + Kimani_Vidal_RB_37127850
 + Ladd_McConkey_FLEX_37127906 + Ladd_McConkey_WR_37127906
 + Quentin_Johnston_FLEX_37127914 + Quentin_Johnston_WR_37127914
 + Stone_Smartt_FLEX_37128012 + Stone_Smartt_TE_37128012
 + Tucker_Fisk_FLEX_37128028 + Tucker_Fisk_TE_37128028
 + Will_Dissly_FLEX_37128010 + Will_Dissly_TE_37128010 <= 4
Global_Team_LAR: Blake_Corum_FLEX_37127856 + Blake_Corum_RB_37127856
 + Colby_Parkinson_FLEX_37128022 + Colby_Parkinson_TE_37128022
 + Cooper_Kupp_FLEX_37127908 + Cooper_Kupp_WR_37127908
 + Demarcus_Robinson_FLEX_37127930 + Demarcus_Robinson_WR_37127930
 + Kyren_Williams_FLEX_37127832 + Kyren_Williams_RB_37127832
 + Matthew_Stafford_QB_37127817 + Puka_Nacua_FLEX_37127902
 + Puka_Nacua_WR_37127902 + Rams_DST_37128075 + Tutu_Atwell_FLEX_37127932
 + Tutu_Atwell_WR_37127932 + Tyler_Higbee_FLEX_37128014
 + Tyler_Higbee_TE_37128014 <= 4
Global_Team_NE: Antonio_Gibson_FLEX_37127844 + Antonio_Gibson_RB_37127844
 + Austin_Hooper_FLEX_37128016 + Austin_Hooper_TE_37128016
 + DeMario_Douglas_FLEX_37127918 + DeMario_Douglas_WR_37127918
 + Drake_Maye_QB_37127816 + Hunter_Henry_FLEX_37128008
 + Hunter_Henry_TE_37128008 + Kayshon_Boutte_FLEX_37127924
 + Kayshon_Boutte_WR_37127924 + Kendrick_Bourne_FLEX_37127936
 + Kendrick_Bourne_WR_37127936 + Patriots_DST_37128079
 + Rhamondre_Stevenson_FLEX_37127838 + Rhamondre_Stevenson_RB_37127838 <= 4
Max_Salary: 2800 Adam_Trautman_FLEX_37128020 + 2800 Adam_Trautman_TE_37128020
 + 3800 Andrei_Iosivas_FLEX_37127928 + 3800 Andrei_Iosivas_WR_37127928
 + 5200 Antonio_Gibson_FLEX_37127844 + 5200 Antonio_Gibson_RB_37127844
 + 5000 Audric_Estime_FLEX_37127846 + 5000 Audric_Estime_RB_37127846
 + 3200 Austin_Hooper_FLEX_37128016 + 3200 Austin_Hooper_TE_37128016
 + 3000 Bengals_DST_37128076 + 4500 Blake_Corum_FLEX_37127856
 + 4500 Blake_Corum_RB_37127856 + 6200 Bo_Nix_QB_37127813
 + 2800 Broncos_DST_37128077 + 2500 Cam_Grandy_FLEX_37128066
 + 2500 Cam_Grandy_TE_37128066 + 2600 Cardinals_DST_37128078
 + 3400 Chargers_DST_37128074 + 7600 Chase_Brown_FLEX_37127830
 + 7600 Chase_Brown_RB_37127830 + 2700 Colby_Parkinson_FLEX_37128022
 + 2700 Colby_Parkinson_TE_37128022 + 6500 Cooper_Kupp_FLEX_37127908
 + 6500 Cooper_Kupp_WR_37127908 + 6300 Courtland_Sutton_FLEX_37127910
 + 6300 Courtland_Sutton_WR_37127910 + 3000 DJ_Chark_FLEX_37127942
 + 3000 DJ_Chark_WR_37127942 + 4300 DeMario_Douglas_FLEX_37127918
 + 4300 DeMario_Douglas_WR_37127918 + 4400 DeeJay_Dallas_FLEX_37127858
 + 4400 DeeJay_Dallas_RB_37127858 + 3700 Demarcus_Robinson_FLEX_37127930
 + 3700 Demarcus_Robinson_WR_37127930 + 3100 Derius_Davis_FLEX_37127940
 + 3100 Derius_Davis_WR_37127940 + 4100 Devaughn_Vele_FLEX_37127922
 + 4100 Devaughn_Vele_WR_37127922 + 5800 Drake_Maye_QB_37127816
 + 2500 Drew_Sample_FLEX_37128062 + 2500 Drew_Sample_TE_37128062
 + 2500 Elijah_Higgins_FLEX_37128042 + 2500 Elijah_Higgins_TE_37128042
 + 3200 Greg_Dortch_FLEX_37127938 + 3200 Greg_Dortch_WR_37127938
 + 4200 Hunter_Henry_FLEX_37128008 + 4200 Hunter_Henry_TE_37128008
 + 5800 J.K._Dobbins_FLEX_37127836 + 5800 J.K._Dobbins_RB_37127836
 + 8400 Ja'Marr_Chase_FLEX_37127900 + 8400 Ja'Marr_Chase_WR_37127900
 + 4700 Jaleel_McLaughlin_FLEX_37127852 + 4700 Jaleel_McLaughlin_RB_37127852
 + 7400 James_Conner_FLEX_37127834 + 7400 James_Conner_RB_37127834
 + 5400 Javonte_Williams_FLEX_37127840 + 5400 Javonte_Williams_RB_37127840
 + 7200 Joe_Burrow_QB_37127812 + 4400 Joshua_Palmer_FLEX_37127916
 + 4400 Joshua_Palmer_WR_37127916 + 5900 Justin_Herbert_QB_37127815
 + 4000 Kayshon_Boutte_FLEX_37127924 + 4000 Kayshon_Boutte_WR_37127924
 + 3300 Kendrick_Bourne_FLEX_37127936 + 3300 Kendrick_Bourne_WR_37127936
 + 4600 Khalil_Herbert_FLEX_37127854 + 4600 Khalil_Herbert_RB_37127854
 + 4800 Kimani_Vidal_FLEX_37127850 + 4800 Kimani_Vidal_RB_37127850
 + 6000 Kyler_Murray_QB_37127814 + 7500 Kyren_Williams_FLEX_37127832
 + 7500 Kyren_Williams_RB_37127832 + 6600 Ladd_McConkey_FLEX_37127906
 + 6600 Ladd_McConkey_WR_37127906 + 3000 Lil'Jordan_Humphrey_FLEX_37127988
 + 3000 Lil'Jordan_Humphrey_WR_37127988 + 2600 Lucas_Krull_FLEX_37128024
 + 2600 Lucas_Krull_TE_37128024 + 5200 Marvin_Harrison_Jr._FLEX_37127912
 + 5200 Marvin_Harrison_Jr._WR_37127912 + 3900 Marvin_Mims_Jr._FLEX_37127926
 + 3900 Marvin_Mims_Jr._WR_37127926 + 5700 Matthew_Stafford_QB_37127817
 + 4000 Michael_Burton_FLEX_37127888 + 4000 Michael_Burton_RB_37127888
 + 4200 Michael_Wilson_FLEX_37127920 + 4200 Michael_Wilson_WR_37127920
 + 3100 Mike_Gesicki_FLEX_37128018 + 3100 Mike_Gesicki_TE_37128018
 + 2500 Nate_Adkins_FLEX_37128054 + 2500 Nate_Adkins_TE_37128054
 + 2400 Patriots_DST_37128079 + 8000 Puka_Nacua_FLEX_37127902
 + 8000 Puka_Nacua_WR_37127902 + 5100 Quentin_Johnston_FLEX_37127914
 + 5100 Quentin_Johnston_WR_37127914 + 3200 Rams_DST_37128075
 + 5700 Rhamondre_Stevenson_FLEX_37127838
 + 5700 Rhamondre_Stevenson_RB_37127838 + 3400 Stone_Smartt_FLEX_37128012
 + 3400 Stone_Smartt_TE_37128012 + 6900 Tee_Higgins_FLEX_37127904
 + 6900 Tee_Higgins_WR_37127904 + 4900 Trey_Benson_FLEX_37127848
 + 4900 Trey_Benson_RB_37127848 + 6200 Trey_McBride_FLEX_37128006
 + 6200 Trey_McBride_TE_37128006 + 3400 Troy_Franklin_FLEX_37127934
 + 3400 Troy_Franklin_WR_37127934 + 2500 Tucker_Fisk_FLEX_37128028
 + 2500 Tucker_Fisk_TE_37128028 + 3500 Tutu_Atwell_FLEX_37127932
 + 3500 Tutu_Atwell_WR_37127932 + 3300 Tyler_Higbee_FLEX_37128014
 + 3300 Tyler_Higbee_TE_37128014 + 3700 Will_Dissly_FLEX_37128010
 + 3700 Will_Dissly_TE_37128010 + 3000 Zay_Jones_FLEX_37127968
 + 3000 Zay_Jones_WR_37127968 <= 50000
Min_Salary: 2800 Adam_Trautman_FLEX_37128020 + 2800 Adam_Trautman_TE_37128020
 + 3800 Andrei_Iosivas_FLEX_37127928 + 3800 Andrei_Iosivas_WR_37127928
 + 5200 Antonio_Gibson_FLEX_37127844 + 5200 Antonio_Gibson_RB_37127844
 + 5000 Audric_Estime_FLEX_37127846 + 5000 Audric_Estime_RB_37127846
 + 3200 Austin_Hooper_FLEX_37128016 + 3200 Austin_Hooper_TE_37128016
 + 3000 Bengals_DST_37128076 + 4500 Blake_Corum_FLEX_37127856
 + 4500 Blake_Corum_RB_37127856 + 6200 Bo_Nix_QB_37127813
 + 2800 Broncos_DST_37128077 + 2500 Cam_Grandy_FLEX_37128066
 + 2500 Cam_Grandy_TE_37128066 + 2600 Cardinals_DST_37128078
 + 3400 Chargers_DST_37128074 + 7600 Chase_Brown_FLEX_37127830
 + 7600 Chase_Brown_RB_37127830 + 2700 Colby_Parkinson_FLEX_37128022
 + 2700 Colby_Parkinson_TE_37128022 + 6500 Cooper_Kupp_FLEX_37127908
 + 6500 Cooper_Kupp_WR_37127908 + 6300 Courtland_Sutton_FLEX_37127910
 + 6300 Courtland_Sutton_WR_37127910 + 3000 DJ_Chark_FLEX_37127942
 + 3000 DJ_Chark_WR_37127942 + 4300 DeMario_Douglas_FLEX_37127918
 + 4300 DeMario_Douglas_WR_37127918 + 4400 DeeJay_Dallas_FLEX_37127858
 + 4400 DeeJay_Dallas_RB_37127858 + 3700 Demarcus_Robinson_FLEX_37127930
 + 3700 Demarcus_Robinson_WR_37127930 + 3100 Derius_Davis_FLEX_37127940
 + 3100 Derius_Davis_WR_37127940 + 4100 Devaughn_Vele_FLEX_37127922
 + 4100 Devaughn_Vele_WR_37127922 + 5800 Drake_Maye_QB_37127816
 + 2500 Drew_Sample_FLEX_37128062 + 2500 Drew_Sample_TE_37128062
 + 2500 Elijah_Higgins_FLEX_37128042 + 2500 Elijah_Higgins_TE_37128042
 + 3200 Greg_Dortch_FLEX_37127938 + 3200 Greg_Dortch_WR_37127938
 + 4200 Hunter_Henry_FLEX_37128008 + 4200 Hunter_Henry_TE_37128008
 + 5800 J.K._Dobbins_FLEX_37127836 + 5800 J.K._Dobbins_RB_37127836
 + 8400 Ja'Marr_Chase_FLEX_37127900 + 8400 Ja'Marr_Chase_WR_37127900
 + 4700 Jaleel_McLaughlin_FLEX_37127852 + 4700 Jaleel_McLaughlin_RB_37127852
 + 7400 James_Conner_FLEX_37127834 + 7400 James_Conner_RB_37127834
 + 5400 Javonte_Williams_FLEX_37127840 + 5400 Javonte_Williams_RB_37127840
 + 7200 Joe_Burrow_QB_37127812 + 4400 Joshua_Palmer_FLEX_37127916
 + 4400 Joshua_Palmer_WR_37127916 + 5900 Justin_Herbert_QB_37127815
 + 4000 Kayshon_Boutte_FLEX_37127924 + 4000 Kayshon_Boutte_WR_37127924
 + 3300 Kendrick_Bourne_FLEX_37127936 + 3300 Kendrick_Bourne_WR_37127936
 + 4600 Khalil_Herbert_FLEX_37127854 + 4600 Khalil_Herbert_RB_37127854
 + 4800 Kimani_Vidal_FLEX_37127850 + 4800 Kimani_Vidal_RB_37127850
 + 6000 Kyler_Murray_QB_37127814 + 7500 Kyren_Williams_FLEX_37127832
 + 7500 Kyren_Williams_RB_37127832 + 6600 Ladd_McConkey_FLEX_37127906
 + 6600 Ladd_McConkey_WR_37127906 + 3000 Lil'Jordan_Humphrey_FLEX_37127988
 + 3000 Lil'Jordan_Humphrey_WR_37127988 + 2600 Lucas_Krull_FLEX_37128024
 + 2600 Lucas_Krull_TE_37128024 + 5200 Marvin_Harrison_Jr._FLEX_37127912
 + 5200 Marvin_Harrison_Jr._WR_37127912 + 3900 Marvin_Mims_Jr._FLEX_37127926
 + 3900 Marvin_Mims_Jr._WR_37127926 + 5700 Matthew_Stafford_QB_37127817
 + 4000 Michael_Burton_FLEX_37127888 + 4000 Michael_Burton_RB_37127888
 + 4200 Michael_Wilson_FLEX_37127920 + 4200 Michael_Wilson_WR_37127920
 + 3100 Mike_Gesicki_FLEX_37128018 + 3100 Mike_Gesicki_TE_37128018
 + 2500 Nate_Adkins_FLEX_37128054 + 2500 Nate_Adkins_TE_37128054
 + 2400 Patriots_DST_37128079 + 8000 Puka_Nacua_FLEX_37127902
 + 8000 Puka_Nacua_WR_37127902 + 5100 Quentin_Johnston_FLEX_37127914
 + 5100 Quentin_Johnston_WR_37127914 + 3200 Rams_DST_37128075
 + 5700 Rhamondre_Stevenson_FLEX_37127838
 + 5700 Rhamondre_Stevenson_RB_37127838 + 3400 Stone_Smartt_FLEX_37128012
 + 3400 Stone_Smartt_TE_37128012 + 6900 Tee_Higgins_FLEX_37127904
 + 6900 Tee_Higgins_WR_37127904 + 4900 Trey_Benson_FLEX_37127848
 + 4900 Trey_Benson_RB_37127848 + 6200 Trey_McBride_FLEX_37128006
 + 6200 Trey_McBride_TE_37128006 + 3400 Troy_Franklin_FLEX_37127934
 + 3400 Troy_Franklin_WR_37127934 + 2500 Tucker_Fisk_FLEX_37128028
 + 2500 Tucker_Fisk_TE_37128028 + 3500 Tutu_Atwell_FLEX_37127932
 + 3500 Tutu_Atwell_WR_37127932 + 3300 Tyler_Higbee_FLEX_37128014
 + 3300 Tyler_Higbee_TE_37128014 + 3700 Will_Dissly_FLEX_37128010
 + 3700 Will_Dissly_TE_37128010 + 3000 Zay_Jones_FLEX_37127968
 + 3000 Zay_Jones_WR_37127968 >= 49000
Offense_vs_Defense_ARI_vs_LAR: Blake_Corum_FLEX_37127856
 + Blake_Corum_RB_37127856 + Colby_Parkinson_FLEX_37128022
 + Colby_Parkinson_TE_37128022 + Cooper_Kupp_FLEX_37127908
 + Cooper_Kupp_WR_37127908 + Demarcus_Robinson_FLEX_37127930
 + Demarcus_Robinson_WR_37127930 + Kyren_Williams_FLEX_37127832
 + Kyren_Williams_RB_37127832 + Matthew_Stafford_QB_37127817
 + Puka_Nacua_FLEX_37127902 + Puka_Nacua_WR_37127902
 + Tutu_Atwell_FLEX_37127932 + Tutu_Atwell_WR_37127932
 + Tyler_Higbee_FLEX_37128014 + Tyler_Higbee_TE_37128014
 + 17 defense_ARI_selected <= 19
Offense_vs_Defense_CIN_vs_DEN: Adam_Trautman_FLEX_37128020
 + Adam_Trautman_TE_37128020 + Audric_Estime_FLEX_37127846
 + Audric_Estime_RB_37127846 + Bo_Nix_QB_37127813
 + Courtland_Sutton_FLEX_37127910 + Courtland_Sutton_WR_37127910
 + Devaughn_Vele_FLEX_37127922 + Devaughn_Vele_WR_37127922
 + Jaleel_McLaughlin_FLEX_37127852 + Jaleel_McLaughlin_RB_37127852
 + Javonte_Williams_FLEX_37127840 + Javonte_Williams_RB_37127840
 + Lil'Jordan_Humphrey_FLEX_37127988 + Lil'Jordan_Humphrey_WR_37127988
 + Lucas_Krull_FLEX_37128024 + Lucas_Krull_TE_37128024
 + Marvin_Mims_Jr._FLEX_37127926 + Marvin_Mims_Jr._WR_37127926
 + Michael_Burton_FLEX_37127888 + Michael_Burton_RB_37127888
 + Nate_Adkins_FLEX_37128054 + Nate_Adkins_TE_37128054
 + Troy_Franklin_FLEX_37127934 + Troy_Franklin_WR_37127934
 + 25 defense_CIN_selected <= 27
Offense_vs_Defense_DEN_vs_CIN: Andrei_Iosivas_FLEX_37127928
 + Andrei_Iosivas_WR_37127928 + Cam_Grandy_FLEX_37128066
 + Cam_Grandy_TE_37128066 + Chase_Brown_FLEX_37127830
 + Chase_Brown_RB_37127830 + Drew_Sample_FLEX_37128062
 + Drew_Sample_TE_37128062 + Ja'Marr_Chase_FLEX_37127900
 + Ja'Marr_Chase_WR_37127900 + Joe_Burrow_QB_37127812
 + Khalil_Herbert_FLEX_37127854 + Khalil_Herbert_RB_37127854
 + Mike_Gesicki_FLEX_37128018 + Mike_Gesicki_TE_37128018
 + Tee_Higgins_FLEX_37127904 + Tee_Higgins_WR_37127904
 + 17 defense_DEN_selected <= 19
Offense_vs_Defense_LAC_vs_NE: Antonio_Gibson_FLEX_37127844
 + Antonio_Gibson_RB_37127844 + Austin_Hooper_FLEX_37128016
 + Austin_Hooper_TE_37128016 + DeMario_Douglas_FLEX_37127918
 + DeMario_Douglas_WR_37127918 + Drake_Maye_QB_37127816
 + Hunter_Henry_FLEX_37128008 + Hunter_Henry_TE_37128008
 + Kayshon_Boutte_FLEX_37127924 + Kayshon_Boutte_WR_37127924
 + Kendrick_Bourne_FLEX_37127936 + Kendrick_Bourne_WR_37127936
 + Rhamondre_Stevenson_FLEX_37127838 + Rhamondre_Stevenson_RB_37127838
 + 15 defense_LAC_selected <= 17
Offense_vs_Defense_LAR_vs_ARI: DeeJay_Dallas_FLEX_37127858
 + DeeJay_Dallas_RB_37127858 + Elijah_Higgins_FLEX_37128042
 + Elijah_Higgins_TE_37128042 + Greg_Dortch_FLEX_37127938
 + Greg_Dortch_WR_37127938 + James_Conner_FLEX_37127834
 + James_Conner_RB_37127834 + Kyler_Murray_QB_37127814
 + Marvin_Harrison_Jr._FLEX_37127912 + Marvin_Harrison_Jr._WR_37127912
 + Michael_Wilson_FLEX_37127920 + Michael_Wilson_WR_37127920
 + Trey_Benson_FLEX_37127848 + Trey_Benson_RB_37127848
 + Trey_McBride_FLEX_37128006 + Trey_McBride_TE_37128006
 + Zay_Jones_FLEX_37127968 + Zay_Jones_WR_37127968 + 19 defense_LAR_selected
 <= 21
Offense_vs_Defense_NE_vs_LAC: DJ_Chark_FLEX_37127942 + DJ_Chark_WR_37127942
 + Derius_Davis_FLEX_37127940 + Derius_Davis_WR_37127940
 + J.K._Dobbins_FLEX_37127836 + J.K._Dobbins_RB_37127836
 + Joshua_Palmer_FLEX_37127916 + Joshua_Palmer_WR_37127916
 + Justin_Herbert_QB_37127815 + Kimani_Vidal_FLEX_37127850
 + Kimani_Vidal_RB_37127850 + Ladd_McConkey_FLEX_37127906
 + Ladd_McConkey_WR_37127906 + Quentin_Johnston_FLEX_37127914
 + Quentin_Johnston_WR_37127914 + Stone_Smartt_FLEX_37128012
 + Stone_Smartt_TE_37128012 + Tucker_Fisk_FLEX_37128028
 + Tucker_Fisk_TE_37128028 + Will_Dissly_FLEX_37128010
 + Will_Dissly_TE_37128010 + 21 defense_NE_selected <= 23
Position_DST: Bengals_DST_37128076 + Broncos_DST_37128077
 + Cardinals_DST_37128078 + Chargers_DST_37128074 + Patriots_DST_37128079
 + Rams_DST_37128075 = 1
Position_FLEX: Adam_Trautman_FLEX_37128020 + Andrei_Iosivas_FLEX_37127928
 + Antonio_Gibson_FLEX_37127844 + Audric_Estime_FLEX_37127846
 + Austin_Hooper_FLEX_37128016 + Blake_Corum_FLEX_37127856
 + Cam_Grandy_FLEX_37128066 + Chase_Brown_FLEX_37127830
 + Colby_Parkinson_FLEX_37128022 + Cooper_Kupp_FLEX_37127908
 + Courtland_Sutton_FLEX_37127910 + DJ_Chark_FLEX_37127942
 + DeMario_Douglas_FLEX_37127918 + DeeJay_Dallas_FLEX_37127858
 + Demarcus_Robinson_FLEX_37127930 + Derius_Davis_FLEX_37127940
 + Devaughn_Vele_FLEX_37127922 + Drew_Sample_FLEX_37128062
 + Elijah_Higgins_FLEX_37128042 + Greg_Dortch_FLEX_37127938
 + Hunter_Henry_FLEX_37128008 + J.K._Dobbins_FLEX_37127836
 + Ja'Marr_Chase_FLEX_37127900 + Jaleel_McLaughlin_FLEX_37127852
 + James_Conner_FLEX_37127834 + Javonte_Williams_FLEX_37127840
 + Joshua_Palmer_FLEX_37127916 + Kayshon_Boutte_FLEX_37127924
 + Kendrick_Bourne_FLEX_37127936 + Khalil_Herbert_FLEX_37127854
 + Kimani_Vidal_FLEX_37127850 + Kyren_Williams_FLEX_37127832
 + Ladd_McConkey_FLEX_37127906 + Lil'Jordan_Humphrey_FLEX_37127988
 + Lucas_Krull_FLEX_37128024 + Marvin_Harrison_Jr._FLEX_37127912
 + Marvin_Mims_Jr._FLEX_37127926 + Michael_Burton_FLEX_37127888
 + Michael_Wilson_FLEX_37127920 + Mike_Gesicki_FLEX_37128018
 + Nate_Adkins_FLEX_37128054 + Puka_Nacua_FLEX_37127902
 + Quentin_Johnston_FLEX_37127914 + Rhamondre_Stevenson_FLEX_37127838
 + Stone_Smartt_FLEX_37128012 + Tee_Higgins_FLEX_37127904
 + Trey_Benson_FLEX_37127848 + Trey_McBride_FLEX_37128006
 + Troy_Franklin_FLEX_37127934 + Tucker_Fisk_FLEX_37128028
 + Tutu_Atwell_FLEX_37127932 + Tyler_Higbee_FLEX_37128014
 + Will_Dissly_FLEX_37128010 + Zay_Jones_FLEX_37127968 = 1
Position_QB: Bo_Nix_QB_37127813 + Drake_Maye_QB_37127816
 + Joe_Burrow_QB_37127812 + Justin_Herbert_QB_37127815
 + Kyler_Murray_QB_37127814 + Matthew_Stafford_QB_37127817 = 1
Position_RB: Antonio_Gibson_RB_37127844 + Audric_Estime_RB_37127846
 + Blake_Corum_RB_37127856 + Chase_Brown_RB_37127830
 + DeeJay_Dallas_RB_37127858 + J.K._Dobbins_RB_37127836
 + Jaleel_McLaughlin_RB_37127852 + James_Conner_RB_37127834
 + Javonte_Williams_RB_37127840 + Khalil_Herbert_RB_37127854
 + Kimani_Vidal_RB_37127850 + Kyren_Williams_RB_37127832
 + Michael_Burton_RB_37127888 + Rhamondre_Stevenson_RB_37127838
 + Trey_Benson_RB_37127848 = 2
Position_TE: Adam_Trautman_TE_37128020 + Austin_Hooper_TE_37128016
 + Cam_Grandy_TE_37128066 + Colby_Parkinson_TE_37128022
 + Drew_Sample_TE_37128062 + Elijah_Higgins_TE_37128042
 + Hunter_Henry_TE_37128008 + Lucas_Krull_TE_37128024
 + Mike_Gesicki_TE_37128018 + Nate_Adkins_TE_37128054
 + Stone_Smartt_TE_37128012 + Trey_McBride_TE_37128006
 + Tucker_Fisk_TE_37128028 + Tyler_Higbee_TE_37128014
 + Will_Dissly_TE_37128010 = 1
Position_WR: Andrei_Iosivas_WR_37127928 + Cooper_Kupp_WR_37127908
 + Courtland_Sutton_WR_37127910 + DJ_Chark_WR_37127942
 + DeMario_Douglas_WR_37127918 + Demarcus_Robinson_WR_37127930
 + Derius_Davis_WR_37127940 + Devaughn_Vele_WR_37127922
 + Greg_Dortch_WR_37127938 + Ja'Marr_Chase_WR_37127900
 + Joshua_Palmer_WR_37127916 + Kayshon_Boutte_WR_37127924
 + Kendrick_Bourne_WR_37127936 + Ladd_McConkey_WR_37127906
 + Lil'Jordan_Humphrey_WR_37127988 + Marvin_Harrison_Jr._WR_37127912
 + Marvin_Mims_Jr._WR_37127926 + Michael_Wilson_WR_37127920
 + Puka_Nacua_WR_37127902 + Quentin_Johnston_WR_37127914
 + Tee_Higgins_WR_37127904 + Troy_Franklin_WR_37127934
 + Tutu_Atwell_WR_37127932 + Zay_Jones_WR_37127968 = 3
QB_Runback_Bo_Nix_Min_runback_1: Andrei_Iosivas_WR_37127928
 + Cam_Grandy_TE_37128066 + Chase_Brown_RB_37127830 + Drew_Sample_TE_37128062
 + Ja'Marr_Chase_WR_37127900 + Khalil_Herbert_RB_37127854
 + Mike_Gesicki_TE_37128018 + Tee_Higgins_WR_37127904 - qb_Bo_Nix_selected
 >= 0
QB_Runback_Drake_Maye_Min_runback_1: DJ_Chark_WR_37127942
 + Derius_Davis_WR_37127940 + J.K._Dobbins_RB_37127836
 + Joshua_Palmer_WR_37127916 + Kimani_Vidal_RB_37127850
 + Ladd_McConkey_WR_37127906 + Quentin_Johnston_WR_37127914
 + Stone_Smartt_TE_37128012 + Tucker_Fisk_TE_37128028
 + Will_Dissly_TE_37128010 - qb_Drake_Maye_selected >= 0
QB_Runback_Joe_Burrow_Min_runback_1: Adam_Trautman_TE_37128020
 + Audric_Estime_RB_37127846 + Courtland_Sutton_WR_37127910
 + Devaughn_Vele_WR_37127922 + Jaleel_McLaughlin_RB_37127852
 + Javonte_Williams_RB_37127840 + Lil'Jordan_Humphrey_WR_37127988
 + Lucas_Krull_TE_37128024 + Marvin_Mims_Jr._WR_37127926
 + Michael_Burton_RB_37127888 + Nate_Adkins_TE_37128054
 + Troy_Franklin_WR_37127934 - qb_Joe_Burrow_selected >= 0
QB_Runback_Justin_Herbert_Min_runback_1: Antonio_Gibson_RB_37127844
 + Austin_Hooper_TE_37128016 + DeMario_Douglas_WR_37127918
 + Hunter_Henry_TE_37128008 + Kayshon_Boutte_WR_37127924
 + Kendrick_Bourne_WR_37127936 + Rhamondre_Stevenson_RB_37127838
 - qb_Justin_Herbert_selected >= 0
QB_Runback_Kyler_Murray_Min_runback_1: Blake_Corum_RB_37127856
 + Colby_Parkinson_TE_37128022 + Cooper_Kupp_WR_37127908
 + Demarcus_Robinson_WR_37127930 + Kyren_Williams_RB_37127832
 + Puka_Nacua_WR_37127902 + Tutu_Atwell_WR_37127932 + Tyler_Higbee_TE_37128014
 - qb_Kyler_Murray_selected >= 0
QB_Runback_Matthew_Stafford_Min_runback_1: DeeJay_Dallas_RB_37127858
 + Elijah_Higgins_TE_37128042 + Greg_Dortch_WR_37127938
 + James_Conner_RB_37127834 + Marvin_Harrison_Jr._WR_37127912
 + Michael_Wilson_WR_37127920 + Trey_Benson_RB_37127848
 + Trey_McBride_TE_37128006 + Zay_Jones_WR_37127968
 - qb_Matthew_Stafford_selected >= 0
QB_Stack_Bo_Nix_Min_stack_2: Adam_Trautman_TE_37128020
 + Audric_Estime_RB_37127846 + Courtland_Sutton_WR_37127910
 + Devaughn_Vele_WR_37127922 + Jaleel_McLaughlin_RB_37127852
 + Javonte_Williams_RB_37127840 + Lil'Jordan_Humphrey_WR_37127988
 + Lucas_Krull_TE_37128024 + Marvin_Mims_Jr._WR_37127926
 + Michael_Burton_RB_37127888 + Nate_Adkins_TE_37128054
 + Troy_Franklin_WR_37127934 - 2 qb_Bo_Nix_selected >= 0
QB_Stack_Drake_Maye_Min_stack_2: Antonio_Gibson_RB_37127844
 + Austin_Hooper_TE_37128016 + DeMario_Douglas_WR_37127918
 + Hunter_Henry_TE_37128008 + Kayshon_Boutte_WR_37127924
 + Kendrick_Bourne_WR_37127936 + Rhamondre_Stevenson_RB_37127838
 - 2 qb_Drake_Maye_selected >= 0
QB_Stack_Joe_Burrow_Min_stack_2: Andrei_Iosivas_WR_37127928
 + Cam_Grandy_TE_37128066 + Chase_Brown_RB_37127830 + Drew_Sample_TE_37128062
 + Ja'Marr_Chase_WR_37127900 + Khalil_Herbert_RB_37127854
 + Mike_Gesicki_TE_37128018 + Tee_Higgins_WR_37127904
 - 2 qb_Joe_Burrow_selected >= 0
QB_Stack_Justin_Herbert_Min_stack_2: DJ_Chark_WR_37127942
 + Derius_Davis_WR_37127940 + J.K._Dobbins_RB_37127836
 + Joshua_Palmer_WR_37127916 + Kimani_Vidal_RB_37127850
 + Ladd_McConkey_WR_37127906 + Quentin_Johnston_WR_37127914
 + Stone_Smartt_TE_37128012 + Tucker_Fisk_TE_37128028
 + Will_Dissly_TE_37128010 - 2 qb_Justin_Herbert_selected >= 0
QB_Stack_Kyler_Murray_Min_stack_2: DeeJay_Dallas_RB_37127858
 + Elijah_Higgins_TE_37128042 + Greg_Dortch_WR_37127938
 + James_Conner_RB_37127834 + Marvin_Harrison_Jr._WR_37127912
 + Michael_Wilson_WR_37127920 + Trey_Benson_RB_37127848
 + Trey_McBride_TE_37128006 + Zay_Jones_WR_37127968
 - 2 qb_Kyler_Murray_selected >= 0
QB_Stack_Matthew_Stafford_Min_stack_2: Blake_Corum_RB_37127856
 + Colby_Parkinson_TE_37128022 + Cooper_Kupp_WR_37127908
 + Demarcus_Robinson_WR_37127930 + Kyren_Williams_RB_37127832
 + Puka_Nacua_WR_37127902 + Tutu_Atwell_WR_37127932 + Tyler_Higbee_TE_37128014
 - 2 qb_Matthew_Stafford_selected >= 0
Select_Defense_ARI: - Cardinals_DST_37128078 + defense_ARI_selected = 0
Select_Defense_CIN: - Bengals_DST_37128076 + defense_CIN_selected = 0
Select_Defense_DEN: - Broncos_DST_37128077 + defense_DEN_selected = 0
Select_Defense_LAC: - Chargers_DST_37128074 + defense_LAC_selected = 0
Select_Defense_LAR: - Rams_DST_37128075 + defense_LAR_selected = 0
Select_Defense_NE: - Patriots_DST_37128079 + defense_NE_selected = 0
Select_QB_Bo_Nix: - Bo_Nix_QB_37127813 + qb_Bo_Nix_selected = 0
Select_QB_Drake_Maye: - Drake_Maye_QB_37127816 + qb_Drake_Maye_selected = 0
Select_QB_Joe_Burrow: - Joe_Burrow_QB_37127812 + qb_Joe_Burrow_selected = 0
Select_QB_Justin_Herbert: - Justin_Herbert_QB_37127815
 + qb_Justin_Herbert_selected = 0
Select_QB_Kyler_Murray: - Kyler_Murray_QB_37127814 + qb_Kyler_Murray_selected
 = 0
Select_QB_Matthew_Stafford: - Matthew_Stafford_QB_37127817
 + qb_Matthew_Stafford_selected = 0
Single_Use_Adam_Trautman: Adam_Trautman_FLEX_37128020
 + Adam_Trautman_TE_37128020 <= 1
Single_Use_Andrei_Iosivas: Andrei_Iosivas_FLEX_37127928
 + Andrei_Iosivas_WR_37127928 <= 1
Single_Use_Antonio_Gibson: Antonio_Gibson_FLEX_37127844
 + Antonio_Gibson_RB_37127844 <= 1
Single_Use_Audric_Estime: Audric_Estime_FLEX_37127846
 + Audric_Estime_RB_37127846 <= 1
Single_Use_Austin_Hooper: Austin_Hooper_FLEX_37128016
 + Austin_Hooper_TE_37128016 <= 1
Single_Use_Bengals: Bengals_DST_37128076 <= 1
Single_Use_Blake_Corum: Blake_Corum_FLEX_37127856 + Blake_Corum_RB_37127856
 <= 1
Single_Use_Bo_Nix: Bo_Nix_QB_37127813 <= 1
Single_Use_Broncos: Broncos_DST_37128077 <= 1
Single_Use_Cam_Grandy: Cam_Grandy_FLEX_37128066 + Cam_Grandy_TE_37128066 <= 1
Single_Use_Cardinals: Cardinals_DST_37128078 <= 1
Single_Use_Chargers: Chargers_DST_37128074 <= 1
Single_Use_Chase_Brown: Chase_Brown_FLEX_37127830 + Chase_Brown_RB_37127830
 <= 1
Single_Use_Colby_Parkinson: Colby_Parkinson_FLEX_37128022
 + Colby_Parkinson_TE_37128022 <= 1
Single_Use_Cooper_Kupp: Cooper_Kupp_FLEX_37127908 + Cooper_Kupp_WR_37127908
 <= 1
Single_Use_Courtland_Sutton: Courtland_Sutton_FLEX_37127910
 + Courtland_Sutton_WR_37127910 <= 1
Single_Use_DJ_Chark: DJ_Chark_FLEX_37127942 + DJ_Chark_WR_37127942 <= 1
Single_Use_DeMario_Douglas: DeMario_Douglas_FLEX_37127918
 + DeMario_Douglas_WR_37127918 <= 1
Single_Use_DeeJay_Dallas: DeeJay_Dallas_FLEX_37127858
 + DeeJay_Dallas_RB_37127858 <= 1
Single_Use_Demarcus_Robinson: Demarcus_Robinson_FLEX_37127930
 + Demarcus_Robinson_WR_37127930 <= 1
Single_Use_Derius_Davis: Derius_Davis_FLEX_37127940 + Derius_Davis_WR_37127940
 <= 1
Single_Use_Devaughn_Vele: Devaughn_Vele_FLEX_37127922
 + Devaughn_Vele_WR_37127922 <= 1
Single_Use_Drake_Maye: Drake_Maye_QB_37127816 <= 1
Single_Use_Drew_Sample: Drew_Sample_FLEX_37128062 + Drew_Sample_TE_37128062
 <= 1
Single_Use_Elijah_Higgins: Elijah_Higgins_FLEX_37128042
 + Elijah_Higgins_TE_37128042 <= 1
Single_Use_Greg_Dortch: Greg_Dortch_FLEX_37127938 + Greg_Dortch_WR_37127938
 <= 1
Single_Use_Hunter_Henry: Hunter_Henry_FLEX_37128008 + Hunter_Henry_TE_37128008
 <= 1
Single_Use_J.K._Dobbins: J.K._Dobbins_FLEX_37127836 + J.K._Dobbins_RB_37127836
 <= 1
Single_Use_Ja'Marr_Chase: Ja'Marr_Chase_FLEX_37127900
 + Ja'Marr_Chase_WR_37127900 <= 1
Single_Use_Jaleel_McLaughlin: Jaleel_McLaughlin_FLEX_37127852
 + Jaleel_McLaughlin_RB_37127852 <= 1
Single_Use_James_Conner: James_Conner_FLEX_37127834 + James_Conner_RB_37127834
 <= 1
Single_Use_Javonte_Williams: Javonte_Williams_FLEX_37127840
 + Javonte_Williams_RB_37127840 <= 1
Single_Use_Joe_Burrow: Joe_Burrow_QB_37127812 <= 1
Single_Use_Joshua_Palmer: Joshua_Palmer_FLEX_37127916
 + Joshua_Palmer_WR_37127916 <= 1
Single_Use_Justin_Herbert: Justin_Herbert_QB_37127815 <= 1
Single_Use_Kayshon_Boutte: Kayshon_Boutte_FLEX_37127924
 + Kayshon_Boutte_WR_37127924 <= 1
Single_Use_Kendrick_Bourne: Kendrick_Bourne_FLEX_37127936
 + Kendrick_Bourne_WR_37127936 <= 1
Single_Use_Khalil_Herbert: Khalil_Herbert_FLEX_37127854
 + Khalil_Herbert_RB_37127854 <= 1
Single_Use_Kimani_Vidal: Kimani_Vidal_FLEX_37127850 + Kimani_Vidal_RB_37127850
 <= 1
Single_Use_Kyler_Murray: Kyler_Murray_QB_37127814 <= 1
Single_Use_Kyren_Williams: Kyren_Williams_FLEX_37127832
 + Kyren_Williams_RB_37127832 <= 1
Single_Use_Ladd_McConkey: Ladd_McConkey_FLEX_37127906
 + Ladd_McConkey_WR_37127906 <= 1
Single_Use_Lil'Jordan_Humphrey: Lil'Jordan_Humphrey_FLEX_37127988
 + Lil'Jordan_Humphrey_WR_37127988 <= 1
Single_Use_Lucas_Krull: Lucas_Krull_FLEX_37128024 + Lucas_Krull_TE_37128024
 <= 1
Single_Use_Marvin_Harrison_Jr.: Marvin_Harrison_Jr._FLEX_37127912
 + Marvin_Harrison_Jr._WR_37127912 <= 1
Single_Use_Marvin_Mims_Jr.: Marvin_Mims_Jr._FLEX_37127926
 + Marvin_Mims_Jr._WR_37127926 <= 1
Single_Use_Matthew_Stafford: Matthew_Stafford_QB_37127817 <= 1
Single_Use_Michael_Burton: Michael_Burton_FLEX_37127888
 + Michael_Burton_RB_37127888 <= 1
Single_Use_Michael_Wilson: Michael_Wilson_FLEX_37127920
 + Michael_Wilson_WR_37127920 <= 1
Single_Use_Mike_Gesicki: Mike_Gesicki_FLEX_37128018 + Mike_Gesicki_TE_37128018
 <= 1
Single_Use_Nate_Adkins: Nate_Adkins_FLEX_37128054 + Nate_Adkins_TE_37128054
 <= 1
Single_Use_Patriots: Patriots_DST_37128079 <= 1
Single_Use_Puka_Nacua: Puka_Nacua_FLEX_37127902 + Puka_Nacua_WR_37127902 <= 1
Single_Use_Quentin_Johnston: Quentin_Johnston_FLEX_37127914
 + Quentin_Johnston_WR_37127914 <= 1
Single_Use_Rams: Rams_DST_37128075 <= 1
Single_Use_Rhamondre_Stevenson: Rhamondre_Stevenson_FLEX_37127838
 + Rhamondre_Stevenson_RB_37127838 <= 1
Single_Use_Stone_Smartt: Stone_Smartt_FLEX_37128012 + Stone_Smartt_TE_37128012
 <= 1
Single_Use_Tee_Higgins: Tee_Higgins_FLEX_37127904 + Tee_Higgins_WR_37127904
 <= 1
Single_Use_Trey_Benson: Trey_Benson_FLEX_37127848 + Trey_Benson_RB_37127848
 <= 1
Single_Use_Trey_McBride: Trey_McBride_FLEX_37128006 + Trey_McBride_TE_37128006
 <= 1
Single_Use_Troy_Franklin: Troy_Franklin_FLEX_37127934
 + Troy_Franklin_WR_37127934 <= 1
Single_Use_Tucker_Fisk: Tucker_Fisk_FLEX_37128028 + Tucker_Fisk_TE_37128028
 <= 1
Single_Use_Tutu_Atwell: Tutu_Atwell_FLEX_37127932 + Tutu_Atwell_WR_37127932
 <= 1
Single_Use_Tyler_Higbee: Tyler_Higbee_FLEX_37128014 + Tyler_Higbee_TE_37128014
 <= 1
Single_Use_Will_Dissly: Will_Dissly_FLEX_37128010 + Will_Dissly_TE_37128010
 <= 1
Single_Use_Zay_Jones: Zay_Jones_FLEX_37127968 + Zay_Jones_WR_37127968 <= 1
Binaries
Adam_Trautman_FLEX_37128020
Adam_Trautman_TE_37128020
Andrei_Iosivas_FLEX_37127928
Andrei_Iosivas_WR_37127928
Antonio_Gibson_FLEX_37127844
Antonio_Gibson_RB_37127844
Audric_Estime_FLEX_37127846
Audric_Estime_RB_37127846
Austin_Hooper_FLEX_37128016
Austin_Hooper_TE_37128016
Bengals_DST_37128076
Blake_Corum_FLEX_37127856
Blake_Corum_RB_37127856
Bo_Nix_QB_37127813
Broncos_DST_37128077
Cam_Grandy_FLEX_37128066
Cam_Grandy_TE_37128066
Cardinals_DST_37128078
Chargers_DST_37128074
Chase_Brown_FLEX_37127830
Chase_Brown_RB_37127830
Colby_Parkinson_FLEX_37128022
Colby_Parkinson_TE_37128022
Cooper_Kupp_FLEX_37127908
Cooper_Kupp_WR_37127908
Courtland_Sutton_FLEX_37127910
Courtland_Sutton_WR_37127910
DJ_Chark_FLEX_37127942
DJ_Chark_WR_37127942
DeMario_Douglas_FLEX_37127918
DeMario_Douglas_WR_37127918
DeeJay_Dallas_FLEX_37127858
DeeJay_Dallas_RB_37127858
Demarcus_Robinson_FLEX_37127930
Demarcus_Robinson_WR_37127930
Derius_Davis_FLEX_37127940
Derius_Davis_WR_37127940
Devaughn_Vele_FLEX_37127922
Devaughn_Vele_WR_37127922
Drake_Maye_QB_37127816
Drew_Sample_FLEX_37128062
Drew_Sample_TE_37128062
Elijah_Higgins_FLEX_37128042
Elijah_Higgins_TE_37128042
Greg_Dortch_FLEX_37127938
Greg_Dortch_WR_37127938
Hunter_Henry_FLEX_37128008
Hunter_Henry_TE_37128008
J.K._Dobbins_FLEX_37127836
J.K._Dobbins_RB_37127836
Ja'Marr_Chase_FLEX_37127900
Ja'Marr_Chase_WR_37127900
Jaleel_McLaughlin_FLEX_37127852
Jaleel_McLaughlin_RB_37127852
James_Conner_FLEX_37127834
James_Conner_RB_37127834
Javonte_Williams_FLEX_37127840
Javonte_Williams_RB_37127840
Joe_Burrow_QB_37127812
Joshua_Palmer_FLEX_37127916
Joshua_Palmer_WR_37127916
Justin_Herbert_QB_37127815
Kayshon_Boutte_FLEX_37127924
Kayshon_Boutte_WR_37127924
Kendrick_Bourne_FLEX_37127936
Kendrick_Bourne_WR_37127936
Khalil_Herbert_FLEX_37127854
Khalil_Herbert_RB_37127854
Kimani_Vidal_FLEX_37127850
Kimani_Vidal_RB_37127850
Kyler_Murray_QB_37127814
Kyren_Williams_FLEX_37127832
Kyren_Williams_RB_37127832
Ladd_McConkey_FLEX_37127906
Ladd_McConkey_WR_37127906
Lil'Jordan_Humphrey_FLEX_37127988
Lil'Jordan_Humphrey_WR_37127988
Lucas_Krull_FLEX_37128024
Lucas_Krull_TE_37128024
Marvin_Harrison_Jr._FLEX_37127912
Marvin_Harrison_Jr._WR_37127912
Marvin_Mims_Jr._FLEX_37127926
Marvin_Mims_Jr._WR_37127926
Matthew_Stafford_QB_37127817
Michael_Burton_FLEX_37127888
Michael_Burton_RB_37127888
Michael_Wilson_FLEX_37127920
Michael_Wilson_WR_37127920
Mike_Gesicki_FLEX_37128018
Mike_Gesicki_TE_37128018
Nate_Adkins_FLEX_37128054
Nate_Adkins_TE_37128054
Patriots_DST_37128079
Puka_Nacua_FLEX_37127902
Puka_Nacua_WR_37127902
Quentin_Johnston_FLEX_37127914
Quentin_Johnston_WR_37127914
Rams_DST_37128075
Rhamondre_Stevenson_FLEX_37127838
Rhamondre_Stevenson_RB_37127838
Stone_Smartt_FLEX_37128012
Stone_Smartt_TE_37128012
Tee_Higgins_FLEX_37127904
Tee_Higgins_WR_37127904
Trey_Benson_FLEX_37127848
Trey_Benson_RB_37127848
Trey_McBride_FLEX_37128006
Trey_McBride_TE_37128006
Troy_Franklin_FLEX_37127934
Troy_Franklin_WR_37127934
Tucker_Fisk_FLEX_37128028
Tucker_Fisk_TE_37128028
Tutu_Atwell_FLEX_37127932
Tutu_Atwell_WR_37127932
Tyler_Higbee_FLEX_37128014
Tyler_Higbee_TE_37128014
Will_Dissly_FLEX_37128010
Will_Dissly_TE_37128010
Zay_Jones_FLEX_37127968
Zay_Jones_WR_37127968
defense_ARI_selected
defense_CIN_selected
defense_DEN_selected
defense_LAC_selected
defense_LAR_selected
defense_NE_selected
qb_Bo_Nix_selected
qb_Drake_Maye_selected
qb_Joe_Burrow_selected
qb_Justin_Herbert_selected
qb_Kyler_Murray_selected
qb_Matthew_Stafford_selected
End
